%
% Generated Sudoku 16x16
% Density approximation: 0.80
%
x = array2d(1..n, 1..n, [
   4,  10,  15,  11,   9,   8,  14,   5,  13,   6,   7,  16,   _,   2,   1,  12,
   3,   1,  12,   7,   _,  16,  10,  15,   _,  11,   8,   _,   _,   4,   _,   5,
   9,  13,   5,  16,   6,   _,   1,   _,  15,  12,   2,   3,   _,  10,   _,  14,
   _,  14,   8,   _,  12,   3,   7,  13,  10,   4,   _,   1,   _,  16,   _,   9,
   _,  16,   4,   3,  14,  12,  15,   _,   _,   9,   6,   8,   5,   1,   7,  13,
   8,  15,   6,  12,  11,   4,   9,   7,   3,  13,   _,   5,  16,  14,   2,   _,
   7,   5,   1,   9,   3,  13,   6,   2,  14,  10,  16,  15,   _,  11,   4,   _,
   _,   _,  13,  10,   _,   1,   5,  16,   4,   7,  12,  11,   _,   6,   3,  15,
  10,   8,  11,   6,   5,   9,  12,   _,   _,  16,   4,  13,  14,   _,  15,   2,
   1,  12,   9,   _,  10,  14,  11,   8,   7,   2,  15,   6,   4,   3,  13,  16,
  16,   _,  14,  15,   4,   _,  13,   1,   _,   _,  11,   9,  10,   _,  12,   6,
   _,   3,   2,   4,   7,  15,  16,   _,   5,  14,   _,   _,  11,   8,   9,   1,
  15,   4,   3,   1,  13,   7,   2,  12,   6,   _,  14,  10,   8,   9,   _,  11,
   5,   6,   7,   _,   1,  10,   8,   _,  16,  15,   9,   4,   2,  12,  14,   _,
  12,   9,   _,   8,  15,   5,   _,   _,  11,   1,   3,   2,   _,  13,  10,   7,
   2,  11,  10,  14,  16,   6,   3,   9,  12,   8,  13,   _,   _,  15,   5,   _
]);

n = 16;
